(set-info :smt-lib-version 2.6)
(set-logic QF_LIA)
(set-info :source |
Generated by: Martin Bromberger
Generated on: 2018-01-06
Generator: https://www.mpi-inf.mpg.de/fileadmin/inf/rg1/Documents/RandomUnboundedSageScript.tar.gz
Application: This is a satisfiable problem with bounded and unbounded directions and, therefore, a good test for the termination/completeness of branch-and-bound solvers.
Publications: M. Bromberger. A Reduction from Unbounded Linear Mixed Arithmetic Problems into Bounded Problems. (Work in progress.)

The benchmarks in this class were randomly generated by a sagemath script and by way of construction they are all satisfiable.
Target solver: CVC4 Mathsat SPASS-IQ YICES Z3
|)
(set-info :license "https://creativecommons.org/licenses/by/4.0/")
(set-info :category "random")
(set-info :status sat)
(declare-fun x0 () Int)
(declare-fun x1 () Int)
(declare-fun x2 () Int)
(declare-fun x3 () Int)
(declare-fun x4 () Int)
(declare-fun x5 () Int)
(declare-fun x6 () Int)
(declare-fun x7 () Int)
(declare-fun x8 () Int)
(declare-fun x9 () Int)
(declare-fun x10 () Int)
(declare-fun x11 () Int)
(declare-fun x12 () Int)
(declare-fun x13 () Int)
(declare-fun x14 () Int)
(declare-fun x15 () Int)
(declare-fun x16 () Int)
(declare-fun x17 () Int)
(declare-fun x18 () Int)
(declare-fun x19 () Int)
(declare-fun x20 () Int)
(declare-fun x21 () Int)
(declare-fun x22 () Int)
(declare-fun x23 () Int)
(declare-fun x24 () Int)
(declare-fun x25 () Int)
(declare-fun x26 () Int)
(declare-fun x27 () Int)
(declare-fun x28 () Int)
(declare-fun x29 () Int)
(declare-fun x30 () Int)
(declare-fun x31 () Int)
(declare-fun x32 () Int)
(declare-fun x33 () Int)
(declare-fun x34 () Int)
(declare-fun x35 () Int)
(declare-fun x36 () Int)
(declare-fun x37 () Int)
(declare-fun x38 () Int)
(declare-fun x39 () Int)
(declare-fun x40 () Int)
(declare-fun x41 () Int)
(declare-fun x42 () Int)
(declare-fun x43 () Int)
(declare-fun x44 () Int)
(declare-fun x45 () Int)
(declare-fun x46 () Int)
(declare-fun x47 () Int)
(declare-fun x48 () Int)
(declare-fun x49 () Int)

(assert (and 
(<= (- 11) (+ (* 1 x1) (+ (* 2 x3) (+ (* (- 2) x5) (+ (* (- 1) x7) (+ (* (- 1) x8) (+ (* 1 x12) (+ (* 1 x13) (+ (* 2 x14) (+ (* (- 2) x18) (+ (* (- 1) x19) (+ (* 2 x20) (+ (* 1 x21) (+ (* 2 x22) (+ (* 1 x24) (+ (* 1 x25) (+ (* (- 1) x28) (+ (* (- 2) x30) (+ (* 2 x33) (+ (* (- 1) x39) (+ (* 2 x40) (+ (* 1 x41) (+ (* 1 x42) (+ (* 1 x44) (+ (* (- 2) x47) (* 1 x48) ))))))))))))))))))))))))) 
(<= (- 28) (+ (* 2 x0) (+ (* (- 2) x2) (+ (* (- 1) x5) (+ (* 2 x6) (+ (* (- 1) x7) (+ (* 1 x8) (+ (* (- 2) x9) (+ (* 2 x10) (+ (* 2 x11) (+ (* 2 x13) (+ (* (- 2) x14) (+ (* 2 x18) (+ (* 1 x19) (+ (* (- 2) x20) (+ (* 2 x21) (+ (* 1 x23) (+ (* 2 x24) (+ (* (- 1) x25) (+ (* 1 x26) (+ (* 2 x27) (+ (* 1 x29) (+ (* (- 2) x30) (+ (* 2 x31) (+ (* 2 x32) (+ (* 2 x34) (+ (* (- 1) x35) (+ (* (- 1) x36) (+ (* (- 1) x37) (+ (* 2 x38) (+ (* (- 1) x39) (+ (* 1 x40) (+ (* 2 x43) (+ (* 2 x44) (* 2 x49) )))))))))))))))))))))))))))))))))) 
(<= 15 (+ (* (- 2) x0) (+ (* 1 x2) (+ (* (- 1) x3) (+ (* (- 2) x4) (+ (* 2 x5) (+ (* 2 x8) (+ (* (- 1) x9) (+ (* (- 2) x11) (+ (* (- 2) x14) (+ (* (- 1) x15) (+ (* 1 x16) (+ (* (- 1) x17) (+ (* (- 2) x18) (+ (* 2 x21) (+ (* (- 1) x22) (+ (* (- 2) x23) (+ (* 2 x24) (+ (* 1 x25) (+ (* (- 1) x26) (+ (* (- 2) x27) (+ (* (- 1) x28) (+ (* 1 x29) (+ (* (- 2) x31) (+ (* (- 1) x32) (+ (* 1 x33) (+ (* 2 x35) (+ (* 1 x36) (+ (* 1 x38) (+ (* 2 x39) (+ (* (- 1) x40) (+ (* (- 1) x41) (+ (* (- 1) x42) (+ (* 1 x43) (+ (* 2 x44) (+ (* (- 2) x46) (+ (* 1 x48) (* 1 x49) ))))))))))))))))))))))))))))))))))))) 
(<= (- 15) (+ (* 2 x0) (+ (* 2 x1) (+ (* 2 x4) (+ (* (- 2) x5) (+ (* 1 x7) (+ (* 1 x9) (+ (* (- 1) x12) (+ (* 2 x13) (+ (* 2 x15) (+ (* (- 2) x16) (+ (* (- 2) x17) (+ (* 1 x19) (+ (* (- 2) x25) (+ (* (- 1) x26) (+ (* 2 x28) (+ (* 2 x29) (+ (* (- 2) x30) (+ (* (- 1) x31) (+ (* (- 2) x32) (+ (* (- 1) x33) (+ (* (- 2) x35) (+ (* (- 1) x38) (+ (* (- 1) x41) (+ (* (- 1) x42) (+ (* 2 x43) (+ (* (- 1) x44) (+ (* 1 x47) (* (- 1) x48) )))))))))))))))))))))))))))) 
(<= (- 10) (+ (* 2 x1) (+ (* (- 1) x2) (+ (* 1 x5) (+ (* (- 1) x7) (+ (* 1 x8) (+ (* (- 2) x12) (+ (* (- 2) x14) (+ (* 2 x15) (+ (* (- 1) x16) (+ (* 1 x17) (+ (* (- 1) x18) (+ (* 2 x21) (+ (* 2 x24) (+ (* (- 1) x25) (+ (* 2 x26) (+ (* 1 x34) (+ (* (- 1) x35) (+ (* 1 x36) (+ (* (- 2) x37) (+ (* 1 x38) (+ (* (- 1) x39) (+ (* (- 1) x40) (+ (* 2 x41) (+ (* (- 2) x44) (+ (* (- 2) x45) (+ (* 2 x46) (+ (* (- 1) x48) (* (- 2) x49) )))))))))))))))))))))))))))) 
(<= 38 (+ (* (- 2) x0) (+ (* 2 x2) (+ (* 2 x5) (+ (* (- 1) x6) (+ (* 2 x7) (+ (* (- 2) x8) (+ (* 2 x10) (+ (* (- 2) x11) (+ (* (- 2) x12) (+ (* 1 x13) (+ (* 2 x17) (+ (* (- 1) x19) (+ (* (- 1) x20) (+ (* 2 x22) (+ (* (- 1) x23) (+ (* (- 1) x24) (+ (* 2 x25) (+ (* (- 1) x26) (+ (* (- 2) x27) (+ (* (- 2) x28) (+ (* 1 x29) (+ (* 2 x31) (+ (* (- 2) x33) (+ (* (- 1) x34) (+ (* (- 1) x36) (+ (* 2 x38) (+ (* (- 2) x39) (+ (* 2 x41) (+ (* (- 1) x43) (+ (* (- 2) x44) (+ (* (- 2) x45) (+ (* 2 x46) (+ (* (- 1) x47) (+ (* (- 2) x48) (* 2 x49) ))))))))))))))))))))))))))))))))))) 
(<= 12 (+ (* 2 x0) (+ (* (- 1) x1) (+ (* 2 x2) (+ (* (- 2) x3) (+ (* 2 x4) (+ (* 1 x5) (+ (* 1 x6) (+ (* (- 2) x8) (+ (* (- 1) x9) (+ (* 1 x11) (+ (* 1 x12) (+ (* (- 1) x13) (+ (* 2 x16) (+ (* (- 2) x17) (+ (* 2 x21) (+ (* 1 x24) (+ (* 1 x25) (+ (* 2 x27) (+ (* (- 2) x28) (+ (* (- 1) x32) (+ (* 2 x33) (+ (* (- 1) x34) (+ (* 1 x35) (+ (* 1 x37) (+ (* 2 x40) (+ (* 2 x42) (+ (* 1 x44) (+ (* 2 x45) (+ (* 1 x46) (+ (* (- 1) x47) (* (- 1) x49) ))))))))))))))))))))))))))))))) 
(<= 26 (+ (* 1 x0) (+ (* 2 x1) (+ (* (- 1) x3) (+ (* (- 1) x5) (+ (* 2 x6) (+ (* 1 x7) (+ (* (- 2) x8) (+ (* (- 2) x9) (+ (* 2 x12) (+ (* (- 2) x14) (+ (* (- 2) x15) (+ (* (- 2) x16) (+ (* 2 x17) (+ (* 1 x19) (+ (* (- 2) x20) (+ (* 1 x21) (+ (* (- 2) x22) (+ (* (- 2) x23) (+ (* (- 2) x24) (+ (* 1 x26) (+ (* 2 x27) (+ (* 1 x28) (+ (* (- 2) x30) (+ (* 1 x32) (+ (* 2 x34) (+ (* 2 x35) (+ (* (- 2) x36) (+ (* (- 2) x37) (+ (* (- 2) x43) (* 2 x46) )))))))))))))))))))))))))))))) 
(<= (- 13) (+ (* (- 2) x1) (+ (* (- 1) x2) (+ (* 1 x5) (+ (* 2 x7) (+ (* (- 1) x8) (+ (* (- 2) x10) (+ (* (- 1) x11) (+ (* (- 1) x12) (+ (* (- 1) x14) (+ (* 1 x16) (+ (* 2 x17) (+ (* 1 x19) (+ (* 2 x20) (+ (* 2 x22) (+ (* (- 2) x23) (+ (* 1 x24) (+ (* (- 2) x25) (+ (* (- 1) x31) (+ (* 2 x32) (+ (* 2 x33) (+ (* (- 2) x35) (+ (* (- 2) x36) (+ (* (- 2) x43) (+ (* (- 1) x44) (+ (* 2 x46) (+ (* (- 1) x47) (* 1 x48) ))))))))))))))))))))))))))) 
(<= 17 (+ (* (- 1) x1) (+ (* (- 1) x3) (+ (* (- 1) x4) (+ (* (- 1) x6) (+ (* 2 x8) (+ (* (- 1) x10) (+ (* 1 x11) (+ (* (- 2) x15) (+ (* 1 x16) (+ (* (- 1) x17) (+ (* 2 x18) (+ (* (- 2) x19) (+ (* (- 1) x20) (+ (* 1 x21) (+ (* 1 x23) (+ (* (- 2) x25) (+ (* (- 1) x26) (+ (* (- 2) x28) (+ (* 1 x29) (+ (* (- 1) x30) (+ (* 2 x33) (+ (* 1 x34) (+ (* (- 2) x35) (+ (* (- 2) x40) (+ (* (- 2) x41) (+ (* 1 x42) (+ (* 2 x46) (+ (* (- 2) x47) (* (- 2) x48) ))))))))))))))))))))))))))))) 
(<= 29 (+ (* 1 x0) (+ (* 1 x2) (+ (* (- 1) x6) (+ (* 2 x7) (+ (* (- 2) x8) (+ (* 1 x10) (+ (* 1 x11) (+ (* (- 2) x14) (+ (* (- 1) x15) (+ (* (- 1) x16) (+ (* (- 1) x17) (+ (* 1 x18) (+ (* (- 1) x19) (+ (* (- 2) x20) (+ (* 1 x24) (+ (* (- 1) x26) (+ (* (- 2) x28) (+ (* (- 2) x30) (+ (* 2 x31) (+ (* 1 x32) (+ (* (- 2) x33) (+ (* (- 1) x34) (+ (* 1 x37) (+ (* (- 2) x40) (+ (* (- 2) x41) (+ (* (- 2) x42) (+ (* (- 2) x43) (+ (* (- 2) x47) (+ (* 1 x48) (* (- 1) x49) )))))))))))))))))))))))))))))) 
(<= (- 4) (+ (* (- 2) x1) (+ (* 2 x2) (+ (* 1 x3) (+ (* 1 x4) (+ (* 1 x5) (+ (* (- 1) x6) (+ (* 2 x8) (+ (* (- 1) x10) (+ (* 1 x11) (+ (* (- 1) x14) (+ (* 1 x15) (+ (* 1 x16) (+ (* 1 x17) (+ (* 1 x18) (+ (* (- 1) x22) (+ (* (- 2) x23) (+ (* (- 1) x24) (+ (* (- 1) x26) (+ (* 2 x28) (+ (* 1 x33) (+ (* (- 1) x34) (+ (* (- 2) x36) (+ (* 1 x37) (+ (* (- 2) x38) (+ (* (- 2) x41) (+ (* (- 2) x42) (+ (* (- 1) x44) (+ (* 1 x45) (+ (* (- 1) x46) (+ (* 1 x47) (* 1 x48) ))))))))))))))))))))))))))))))) 
(<= (- 6) (+ (* (- 2) x0) (+ (* (- 1) x3) (+ (* 2 x7) (+ (* 2 x8) (+ (* (- 2) x12) (+ (* (- 2) x14) (+ (* 1 x16) (+ (* (- 2) x17) (+ (* (- 2) x18) (+ (* 1 x19) (+ (* 2 x20) (+ (* (- 2) x22) (+ (* 2 x23) (+ (* (- 2) x25) (+ (* (- 2) x26) (+ (* 1 x27) (+ (* (- 1) x28) (+ (* 1 x29) (+ (* 2 x30) (+ (* 1 x31) (+ (* (- 1) x32) (+ (* 1 x34) (+ (* (- 1) x36) (+ (* 1 x40) (+ (* (- 2) x41) (+ (* 1 x42) (+ (* 1 x44) (+ (* (- 1) x45) (+ (* (- 2) x47) (* 2 x49) )))))))))))))))))))))))))))))) 
(<= (- 12) (+ (* 2 x0) (+ (* 1 x2) (+ (* (- 2) x3) (+ (* 2 x4) (+ (* 1 x5) (+ (* 2 x6) (+ (* 2 x7) (+ (* 1 x9) (+ (* (- 2) x10) (+ (* 2 x11) (+ (* 2 x12) (+ (* 1 x13) (+ (* (- 1) x14) (+ (* 2 x16) (+ (* (- 1) x18) (+ (* 2 x19) (+ (* 2 x20) (+ (* (- 2) x21) (+ (* (- 2) x22) (+ (* (- 1) x23) (+ (* 2 x24) (+ (* 1 x27) (+ (* (- 1) x28) (+ (* 2 x29) (+ (* 2 x30) (+ (* (- 1) x31) (+ (* (- 1) x32) (+ (* 1 x33) (+ (* 2 x34) (+ (* (- 2) x36) (+ (* 1 x39) (+ (* 2 x40) (+ (* (- 1) x41) (+ (* 2 x42) (+ (* (- 2) x44) (* 1 x49) )))))))))))))))))))))))))))))))))))) 
(<= (- 44) (+ (* 1 x2) (+ (* (- 1) x4) (+ (* 2 x6) (+ (* 2 x9) (+ (* (- 1) x10) (+ (* 1 x11) (+ (* 2 x12) (+ (* 1 x13) (+ (* 1 x14) (+ (* 2 x15) (+ (* (- 2) x17) (+ (* 2 x19) (+ (* (- 2) x21) (+ (* (- 1) x24) (+ (* (- 2) x27) (+ (* 1 x28) (+ (* 2 x30) (+ (* (- 1) x32) (+ (* 2 x35) (+ (* (- 1) x36) (+ (* 1 x37) (+ (* (- 1) x38) (+ (* 2 x39) (+ (* 1 x40) (+ (* 2 x41) (+ (* (- 2) x42) (+ (* (- 1) x43) (+ (* 2 x44) (+ (* 2 x45) (+ (* (- 1) x48) (* (- 2) x49) ))))))))))))))))))))))))))))))) 
(<= 17 (+ (* (- 2) x0) (+ (* (- 2) x1) (+ (* 2 x7) (+ (* 1 x8) (+ (* 2 x12) (+ (* 2 x13) (+ (* 1 x14) (+ (* (- 1) x15) (+ (* (- 2) x18) (+ (* 1 x19) (+ (* 2 x21) (+ (* (- 1) x22) (+ (* (- 1) x23) (+ (* (- 2) x26) (+ (* 2 x28) (+ (* (- 2) x30) (+ (* (- 2) x31) (+ (* (- 1) x36) (+ (* (- 1) x39) (+ (* 2 x41) (+ (* (- 2) x42) (+ (* 2 x43) (+ (* 1 x44) (+ (* (- 2) x46) (+ (* 2 x47) (+ (* (- 2) x48) (* 1 x49) ))))))))))))))))))))))))))) 
(<= 24 (+ (* 1 x0) (+ (* (- 2) x1) (+ (* (- 2) x3) (+ (* 1 x4) (+ (* (- 2) x5) (+ (* (- 2) x8) (+ (* (- 1) x10) (+ (* (- 1) x12) (+ (* 1 x13) (+ (* (- 2) x14) (+ (* (- 1) x15) (+ (* (- 1) x17) (+ (* (- 2) x18) (+ (* (- 1) x20) (+ (* (- 2) x22) (+ (* 1 x23) (+ (* 2 x24) (+ (* (- 2) x27) (+ (* 1 x29) (+ (* (- 1) x30) (+ (* (- 2) x31) (+ (* (- 2) x32) (+ (* (- 2) x34) (+ (* 2 x35) (+ (* (- 2) x36) (+ (* (- 2) x38) (+ (* (- 2) x39) (+ (* (- 1) x40) (+ (* (- 2) x44) (+ (* 2 x45) (+ (* 1 x47) (+ (* (- 1) x48) (* (- 1) x49) ))))))))))))))))))))))))))))))))) 
(<= 20 (+ (* 2 x0) (+ (* (- 2) x1) (+ (* (- 2) x3) (+ (* (- 2) x6) (+ (* (- 1) x8) (+ (* (- 1) x9) (+ (* (- 2) x10) (+ (* 1 x11) (+ (* (- 2) x12) (+ (* (- 1) x15) (+ (* 2 x16) (+ (* (- 1) x20) (+ (* (- 1) x22) (+ (* 2 x23) (+ (* (- 1) x24) (+ (* (- 1) x25) (+ (* 1 x27) (+ (* 2 x28) (+ (* (- 1) x30) (+ (* (- 1) x32) (+ (* (- 1) x34) (+ (* 2 x35) (+ (* 2 x36) (+ (* 2 x37) (+ (* 2 x39) (+ (* 1 x40) (+ (* (- 2) x45) (+ (* (- 1) x46) (* 2 x49) ))))))))))))))))))))))))))))) 
(<= (- 25) (+ (* 2 x0) (+ (* (- 1) x2) (+ (* 2 x4) (+ (* 1 x5) (+ (* (- 1) x6) (+ (* 1 x10) (+ (* (- 2) x13) (+ (* 2 x15) (+ (* (- 2) x17) (+ (* (- 2) x18) (+ (* 1 x19) (+ (* 1 x26) (+ (* 2 x28) (+ (* 1 x29) (+ (* (- 2) x31) (+ (* 2 x32) (+ (* (- 2) x35) (+ (* 2 x36) (+ (* 1 x37) (+ (* (- 1) x38) (+ (* (- 2) x39) (+ (* 1 x41) (+ (* 1 x42) (+ (* 2 x44) (+ (* 2 x47) (* (- 2) x49) )))))))))))))))))))))))))) 
(<= (- 33) (+ (* 2 x0) (+ (* (- 2) x3) (+ (* (- 1) x4) (+ (* (- 2) x5) (+ (* (- 1) x7) (+ (* 2 x8) (+ (* 1 x10) (+ (* (- 1) x11) (+ (* 1 x13) (+ (* 2 x14) (+ (* 1 x15) (+ (* (- 1) x17) (+ (* 1 x20) (+ (* (- 1) x22) (+ (* 2 x28) (+ (* (- 1) x29) (+ (* 1 x30) (+ (* (- 2) x31) (+ (* 2 x33) (+ (* (- 2) x35) (+ (* 1 x36) (+ (* 1 x37) (+ (* 2 x38) (+ (* (- 2) x42) (+ (* 1 x43) (+ (* 1 x44) (+ (* 2 x45) (+ (* 2 x46) (+ (* 2 x48) (* (- 1) x49) )))))))))))))))))))))))))))))) 
(<= (- 11) (+ (* 2 x1) (+ (* 1 x3) (+ (* 1 x4) (+ (* 2 x7) (+ (* (- 2) x9) (+ (* (- 2) x10) (+ (* (- 2) x12) (+ (* (- 1) x13) (+ (* 1 x14) (+ (* (- 1) x15) (+ (* (- 2) x16) (+ (* 2 x19) (+ (* (- 1) x22) (+ (* 1 x23) (+ (* (- 1) x24) (+ (* (- 1) x25) (+ (* 1 x26) (+ (* 2 x27) (+ (* 2 x28) (+ (* (- 2) x31) (+ (* 1 x32) (+ (* 2 x33) (+ (* (- 2) x37) (+ (* 2 x41) (+ (* (- 1) x42) (+ (* (- 2) x43) (+ (* 2 x46) (+ (* 2 x48) (* 1 x49) ))))))))))))))))))))))))))))) 
(<= 43 (+ (* (- 2) x0) (+ (* (- 2) x1) (+ (* 2 x2) (+ (* (- 1) x6) (+ (* 1 x9) (+ (* 2 x12) (+ (* (- 2) x13) (+ (* (- 2) x15) (+ (* 2 x17) (+ (* 2 x18) (+ (* 1 x20) (+ (* (- 1) x22) (+ (* 2 x23) (+ (* (- 1) x24) (+ (* (- 1) x26) (+ (* (- 1) x27) (+ (* 2 x29) (+ (* 2 x30) (+ (* 1 x31) (+ (* 2 x35) (+ (* (- 1) x36) (+ (* 2 x41) (+ (* (- 1) x42) (+ (* 2 x43) (+ (* (- 1) x45) (+ (* (- 1) x47) (+ (* (- 2) x48) (* 1 x49) )))))))))))))))))))))))))))) 
(<= (- 14) (+ (* 2 x0) (+ (* (- 2) x1) (+ (* 2 x3) (+ (* (- 2) x4) (+ (* 2 x6) (+ (* (- 1) x7) (+ (* (- 1) x9) (+ (* 1 x12) (+ (* 1 x13) (+ (* (- 1) x14) (+ (* 2 x15) (+ (* 2 x18) (+ (* (- 2) x19) (+ (* (- 2) x20) (+ (* (- 2) x21) (+ (* (- 1) x23) (+ (* (- 2) x25) (+ (* 1 x28) (+ (* 2 x29) (+ (* (- 1) x30) (+ (* (- 2) x31) (+ (* 1 x34) (+ (* (- 2) x37) (+ (* (- 1) x38) (+ (* 2 x40) (+ (* 1 x41) (+ (* 1 x44) (+ (* 1 x47) (+ (* (- 2) x48) (* (- 2) x49) )))))))))))))))))))))))))))))) 
(<= (- 38) (+ (* 1 x5) (+ (* 1 x6) (+ (* 2 x7) (+ (* (- 2) x8) (+ (* (- 1) x9) (+ (* 2 x10) (+ (* 1 x11) (+ (* 2 x13) (+ (* 2 x15) (+ (* 2 x16) (+ (* 1 x20) (+ (* (- 1) x21) (+ (* 1 x22) (+ (* (- 1) x23) (+ (* 2 x24) (+ (* (- 2) x25) (+ (* 1 x26) (+ (* (- 2) x29) (+ (* 1 x30) (+ (* 1 x31) (+ (* 2 x33) (+ (* 1 x34) (+ (* 1 x35) (+ (* (- 1) x36) (+ (* (- 2) x37) (+ (* (- 2) x38) (+ (* (- 2) x39) (+ (* (- 1) x41) (+ (* (- 2) x43) (+ (* 1 x44) (+ (* 1 x48) (* (- 2) x49) )))))))))))))))))))))))))))))))) 
(<= 18 (+ (* 1 x0) (+ (* (- 1) x1) (+ (* 2 x2) (+ (* 2 x6) (+ (* 1 x7) (+ (* (- 2) x8) (+ (* (- 1) x9) (+ (* 2 x12) (+ (* (- 2) x13) (+ (* (- 1) x14) (+ (* 1 x16) (+ (* (- 2) x17) (+ (* (- 1) x18) (+ (* 2 x19) (+ (* 1 x21) (+ (* 2 x22) (+ (* (- 2) x23) (+ (* (- 1) x24) (+ (* 1 x26) (+ (* 2 x29) (+ (* 1 x30) (+ (* 2 x31) (+ (* (- 2) x32) (+ (* 2 x33) (+ (* 1 x34) (+ (* 1 x35) (+ (* (- 1) x37) (+ (* (- 1) x39) (+ (* 1 x42) (+ (* (- 1) x44) (+ (* 2 x45) (+ (* 1 x46) (+ (* (- 1) x47) (+ (* 1 x48) (* 1 x49) ))))))))))))))))))))))))))))))))))) 
(<= 20 (+ (* 1 x0) (+ (* (- 2) x1) (+ (* 1 x2) (+ (* 1 x4) (+ (* (- 2) x5) (+ (* (- 2) x6) (+ (* (- 2) x8) (+ (* (- 1) x9) (+ (* 1 x10) (+ (* 1 x11) (+ (* (- 2) x12) (+ (* (- 2) x20) (+ (* 2 x22) (+ (* (- 1) x23) (+ (* (- 2) x26) (+ (* 1 x27) (+ (* (- 2) x28) (+ (* (- 2) x29) (+ (* (- 1) x30) (+ (* (- 2) x31) (+ (* (- 1) x32) (+ (* 1 x33) (+ (* (- 2) x35) (+ (* 2 x36) (+ (* 2 x38) (+ (* 1 x40) (+ (* 2 x41) (+ (* (- 2) x44) (+ (* 1 x45) (* 1 x46) )))))))))))))))))))))))))))))) 
(<= (- 49) (+ (* 2 x2) (+ (* 2 x4) (+ (* (- 1) x5) (+ (* (- 2) x7) (+ (* 1 x9) (+ (* 1 x11) (+ (* 1 x13) (+ (* 1 x15) (+ (* 1 x18) (+ (* 1 x19) (+ (* 2 x20) (+ (* (- 1) x21) (+ (* 2 x22) (+ (* 2 x23) (+ (* 2 x24) (+ (* (- 1) x25) (+ (* 2 x26) (+ (* 1 x27) (+ (* 2 x29) (+ (* 1 x30) (+ (* (- 2) x32) (+ (* (- 2) x33) (+ (* (- 2) x34) (+ (* 2 x36) (+ (* 2 x38) (+ (* (- 1) x39) (+ (* 2 x41) (+ (* 1 x42) (+ (* 2 x46) (* 1 x48) )))))))))))))))))))))))))))))) 
(<= 14 (+ (* 1 x0) (+ (* 1 x2) (+ (* 2 x4) (+ (* (- 2) x5) (+ (* (- 1) x6) (+ (* 2 x9) (+ (* (- 2) x10) (+ (* (- 2) x12) (+ (* (- 1) x14) (+ (* 1 x16) (+ (* (- 1) x18) (+ (* 1 x20) (+ (* 2 x21) (+ (* 1 x22) (+ (* (- 2) x24) (+ (* 1 x25) (+ (* (- 1) x26) (+ (* (- 2) x27) (+ (* 1 x29) (+ (* (- 2) x31) (+ (* 2 x37) (+ (* 2 x38) (+ (* (- 2) x39) (+ (* 2 x40) (+ (* (- 2) x42) (+ (* 1 x44) (+ (* (- 2) x45) (+ (* (- 2) x46) (* (- 2) x49) ))))))))))))))))))))))))))))) 
(<= (- 2) (+ (* (- 1) x0) (+ (* 1 x2) (+ (* 2 x3) (+ (* (- 2) x4) (+ (* 1 x5) (+ (* 2 x6) (+ (* (- 1) x7) (+ (* (- 1) x8) (+ (* (- 1) x10) (+ (* 1 x11) (+ (* 1 x13) (+ (* (- 2) x16) (+ (* 2 x19) (+ (* (- 1) x21) (+ (* (- 1) x24) (+ (* (- 2) x26) (+ (* (- 2) x29) (+ (* (- 1) x30) (+ (* (- 1) x34) (+ (* (- 1) x37) (+ (* (- 1) x38) (+ (* 1 x39) (+ (* 1 x43) (+ (* (- 2) x44) (+ (* (- 2) x46) (+ (* 2 x47) (* 1 x48) ))))))))))))))))))))))))))) 
(<= (- 3) (+ (* (- 1) x0) (+ (* (- 2) x1) (+ (* (- 2) x2) (+ (* 2 x3) (+ (* 2 x6) (+ (* 1 x7) (+ (* (- 2) x8) (+ (* (- 2) x9) (+ (* (- 1) x11) (+ (* 2 x12) (+ (* 2 x13) (+ (* 1 x14) (+ (* (- 1) x16) (+ (* (- 2) x17) (+ (* 1 x19) (+ (* 1 x20) (+ (* (- 2) x21) (+ (* 1 x23) (+ (* (- 1) x25) (+ (* 1 x28) (+ (* (- 2) x29) (+ (* 1 x30) (+ (* 2 x33) (+ (* (- 1) x34) (+ (* 1 x35) (+ (* (- 1) x36) (+ (* (- 1) x37) (+ (* (- 1) x38) (+ (* (- 2) x39) (+ (* 2 x41) (+ (* 1 x43) (+ (* (- 2) x44) (+ (* (- 1) x46) (+ (* (- 1) x47) (* (- 2) x49) ))))))))))))))))))))))))))))))))))) 
(<= (- 18) (+ (* (- 1) x0) (+ (* 2 x2) (+ (* 2 x4) (+ (* (- 2) x5) (+ (* 2 x6) (+ (* (- 1) x7) (+ (* 1 x9) (+ (* (- 1) x10) (+ (* 1 x11) (+ (* (- 2) x13) (+ (* (- 2) x14) (+ (* 2 x15) (+ (* (- 1) x16) (+ (* 2 x18) (+ (* (- 1) x19) (+ (* 2 x20) (+ (* 2 x21) (+ (* 2 x23) (+ (* 1 x26) (+ (* 2 x28) (+ (* 1 x29) (+ (* (- 2) x30) (+ (* 1 x31) (+ (* 2 x33) (+ (* 1 x34) (+ (* 1 x35) (+ (* 2 x37) (+ (* 1 x39) (+ (* 2 x40) (+ (* (- 2) x42) (+ (* (- 2) x44) (+ (* 2 x46) (* (- 2) x47) ))))))))))))))))))))))))))))))))) 
(<= 2 (+ (* 2 x0) (+ (* 1 x1) (+ (* 2 x3) (+ (* 1 x4) (+ (* (- 2) x6) (+ (* (- 1) x7) (+ (* 1 x8) (+ (* (- 2) x10) (+ (* 2 x13) (+ (* 1 x14) (+ (* 2 x16) (+ (* 1 x17) (+ (* 2 x18) (+ (* 1 x20) (+ (* 1 x21) (+ (* 2 x24) (+ (* (- 1) x26) (+ (* (- 2) x27) (+ (* (- 2) x30) (+ (* 2 x31) (+ (* 2 x32) (+ (* 1 x33) (+ (* (- 1) x34) (+ (* (- 2) x37) (+ (* (- 2) x38) (+ (* (- 2) x40) (+ (* (- 2) x41) (+ (* (- 1) x42) (+ (* (- 1) x43) (+ (* 2 x45) (+ (* 2 x46) (* (- 1) x47) )))))))))))))))))))))))))))))))) 
(<= (- 9) (+ (* (- 2) x0) (+ (* (- 2) x2) (+ (* (- 2) x3) (+ (* 1 x4) (+ (* (- 1) x6) (+ (* 1 x7) (+ (* 1 x8) (+ (* 1 x10) (+ (* 2 x11) (+ (* (- 1) x13) (+ (* 2 x14) (+ (* (- 2) x16) (+ (* (- 2) x18) (+ (* 1 x21) (+ (* 2 x22) (+ (* 2 x24) (+ (* 1 x25) (+ (* (- 2) x26) (+ (* 1 x27) (+ (* (- 2) x29) (+ (* (- 2) x31) (+ (* (- 2) x33) (+ (* (- 1) x34) (+ (* (- 2) x35) (+ (* (- 2) x37) (+ (* (- 1) x38) (+ (* (- 1) x40) (+ (* (- 2) x43) (+ (* (- 2) x44) (+ (* 2 x48) (* (- 2) x49) ))))))))))))))))))))))))))))))) 
(<= 3 (+ (* 1 x1) (+ (* (- 2) x3) (+ (* 1 x5) (+ (* (- 1) x7) (+ (* (- 1) x8) (+ (* 2 x11) (+ (* 2 x12) (+ (* 1 x15) (+ (* (- 1) x16) (+ (* 1 x17) (+ (* (- 1) x18) (+ (* 1 x19) (+ (* (- 2) x20) (+ (* (- 1) x21) (+ (* (- 1) x22) (+ (* 1 x23) (+ (* (- 2) x28) (+ (* 1 x29) (+ (* 2 x31) (+ (* 1 x38) (+ (* (- 1) x40) (+ (* 1 x41) (+ (* (- 2) x43) (+ (* (- 1) x45) (+ (* (- 1) x46) (+ (* 2 x47) (* (- 1) x48) ))))))))))))))))))))))))))) 
(<= (- 61) (+ (* 1 x0) (+ (* (- 1) x1) (+ (* (- 2) x2) (+ (* 1 x3) (+ (* 1 x6) (+ (* 1 x7) (+ (* 2 x8) (+ (* 1 x13) (+ (* (- 1) x14) (+ (* 2 x16) (+ (* 1 x17) (+ (* 1 x18) (+ (* (- 1) x21) (+ (* 1 x22) (+ (* 2 x23) (+ (* 2 x24) (+ (* (- 2) x25) (+ (* 2 x26) (+ (* 2 x29) (+ (* 2 x30) (+ (* (- 1) x31) (+ (* 1 x32) (+ (* (- 2) x35) (+ (* 2 x36) (+ (* (- 2) x38) (+ (* 1 x39) (+ (* 2 x40) (+ (* 1 x43) (+ (* 2 x44) (+ (* 1 x45) (+ (* (- 1) x46) (+ (* 1 x47) (+ (* 2 x48) (* 1 x49) )))))))))))))))))))))))))))))))))) 
(<= 22 (+ (* 2 x1) (+ (* 2 x2) (+ (* 1 x3) (+ (* (- 1) x4) (+ (* 1 x5) (+ (* (- 2) x6) (+ (* (- 2) x8) (+ (* (- 1) x9) (+ (* (- 2) x10) (+ (* 2 x11) (+ (* 2 x12) (+ (* (- 1) x15) (+ (* 1 x17) (+ (* (- 2) x18) (+ (* (- 1) x19) (+ (* (- 1) x20) (+ (* 2 x21) (+ (* (- 1) x22) (+ (* 1 x23) (+ (* 1 x25) (+ (* 2 x26) (+ (* 1 x27) (+ (* 1 x29) (+ (* 2 x32) (+ (* 1 x33) (+ (* (- 1) x34) (+ (* 1 x35) (+ (* 1 x36) (+ (* 2 x37) (+ (* 2 x39) (+ (* (- 2) x40) (+ (* 1 x42) (+ (* (- 2) x43) (+ (* (- 1) x45) (+ (* (- 1) x47) (+ (* (- 1) x48) (* 2 x49) ))))))))))))))))))))))))))))))))))))) 
(<= 7 (+ (* (- 2) x0) (+ (* (- 1) x1) (+ (* (- 2) x3) (+ (* 1 x4) (+ (* 1 x6) (+ (* (- 2) x7) (+ (* (- 1) x10) (+ (* (- 1) x11) (+ (* (- 1) x14) (+ (* 2 x17) (+ (* (- 2) x19) (+ (* (- 2) x20) (+ (* (- 2) x22) (+ (* 1 x23) (+ (* (- 2) x24) (+ (* 2 x25) (+ (* 1 x26) (+ (* (- 1) x27) (+ (* 2 x28) (+ (* (- 1) x33) (+ (* (- 2) x35) (+ (* (- 1) x36) (+ (* (- 2) x38) (+ (* (- 2) x41) (+ (* 2 x42) (* 1 x43) )))))))))))))))))))))))))) 
(<= 11 (+ (* (- 2) x1) (+ (* (- 2) x2) (+ (* 1 x4) (+ (* 1 x5) (+ (* (- 2) x6) (+ (* 1 x7) (+ (* (- 2) x8) (+ (* (- 2) x9) (+ (* (- 1) x14) (+ (* 2 x15) (+ (* (- 1) x16) (+ (* (- 1) x17) (+ (* 2 x20) (+ (* (- 2) x25) (+ (* (- 2) x26) (+ (* (- 1) x27) (+ (* (- 2) x29) (+ (* 2 x32) (+ (* (- 1) x33) (+ (* (- 2) x35) (+ (* (- 2) x36) (+ (* 1 x37) (+ (* 1 x38) (+ (* (- 1) x39) (+ (* 2 x41) (+ (* (- 1) x42) (+ (* 1 x45) (+ (* 1 x46) (* (- 2) x48) ))))))))))))))))))))))))))))) 
(<= (- 4) (+ (* (- 2) x0) (+ (* (- 2) x3) (+ (* 2 x4) (+ (* 1 x6) (+ (* 2 x10) (+ (* 2 x12) (+ (* (- 2) x15) (+ (* (- 1) x18) (+ (* 1 x21) (+ (* (- 1) x22) (+ (* (- 1) x24) (+ (* 2 x25) (+ (* 1 x28) (+ (* 2 x29) (+ (* (- 2) x30) (+ (* 1 x31) (+ (* (- 1) x32) (+ (* 1 x33) (+ (* (- 2) x34) (+ (* 1 x35) (+ (* 1 x39) (+ (* 1 x41) (+ (* 1 x42) (* 2 x48) )))))))))))))))))))))))) 
(<= (- 18) (+ (* (- 2) x0) (+ (* 2 x1) (+ (* (- 2) x2) (+ (* 1 x5) (+ (* 2 x6) (+ (* (- 2) x7) (+ (* 1 x8) (+ (* 1 x9) (+ (* (- 1) x12) (+ (* (- 1) x13) (+ (* 2 x14) (+ (* 1 x15) (+ (* 2 x16) (+ (* (- 2) x18) (+ (* 2 x19) (+ (* (- 1) x20) (+ (* 2 x21) (+ (* (- 1) x22) (+ (* 1 x23) (+ (* 2 x24) (+ (* (- 1) x26) (+ (* 1 x27) (+ (* (- 1) x29) (+ (* (- 2) x30) (+ (* 1 x32) (+ (* (- 2) x33) (+ (* (- 2) x35) (+ (* 1 x36) (+ (* 1 x38) (+ (* 1 x39) (+ (* 2 x40) (+ (* (- 1) x43) (+ (* 2 x44) (+ (* 2 x45) (+ (* 1 x46) (* (- 2) x48) )))))))))))))))))))))))))))))))))))) 
(<= 6 (+ (* 2 x0) (+ (* 1 x3) (+ (* 1 x4) (+ (* 1 x8) (+ (* 2 x9) (+ (* (- 2) x10) (+ (* (- 1) x11) (+ (* 1 x12) (+ (* 1 x14) (+ (* (- 1) x15) (+ (* 1 x17) (+ (* (- 1) x20) (+ (* (- 2) x22) (+ (* 2 x23) (+ (* 2 x24) (+ (* (- 2) x27) (+ (* 2 x28) (+ (* (- 1) x29) (+ (* (- 2) x31) (+ (* (- 1) x32) (+ (* 1 x33) (+ (* (- 1) x34) (+ (* 1 x37) (+ (* 1 x38) (+ (* 2 x42) (+ (* 2 x43) (+ (* (- 1) x44) (+ (* (- 1) x45) (+ (* 2 x47) (* 1 x48) )))))))))))))))))))))))))))))) 
(<= (- 16) (+ (* (- 1) x0) (+ (* (- 2) x2) (+ (* 1 x5) (+ (* (- 1) x6) (+ (* 2 x9) (+ (* 2 x10) (+ (* 2 x11) (+ (* 1 x12) (+ (* (- 1) x13) (+ (* 1 x14) (+ (* 1 x18) (+ (* 1 x19) (+ (* (- 1) x20) (+ (* 1 x22) (+ (* 1 x24) (+ (* 2 x25) (+ (* 2 x26) (+ (* 2 x27) (+ (* 2 x28) (+ (* 2 x29) (+ (* (- 2) x30) (+ (* (- 2) x32) (+ (* (- 1) x33) (+ (* (- 1) x34) (+ (* (- 1) x35) (+ (* (- 2) x37) (+ (* 2 x38) (+ (* (- 1) x39) (+ (* (- 1) x40) (+ (* (- 1) x41) (+ (* (- 1) x43) (+ (* (- 1) x45) (+ (* 1 x46) (+ (* (- 1) x47) (+ (* 2 x48) (* (- 2) x49) )))))))))))))))))))))))))))))))))))) 
(<= 22 (+ (* 2 x0) (+ (* (- 1) x1) (+ (* (- 2) x2) (+ (* 2 x3) (+ (* 2 x4) (+ (* 2 x9) (+ (* 1 x11) (+ (* 2 x12) (+ (* (- 1) x13) (+ (* (- 2) x15) (+ (* (- 1) x16) (+ (* 1 x17) (+ (* 2 x19) (+ (* (- 2) x21) (+ (* (- 1) x24) (+ (* (- 2) x25) (+ (* (- 2) x29) (+ (* (- 1) x34) (+ (* 1 x36) (+ (* (- 1) x37) (+ (* 2 x38) (+ (* (- 1) x40) (+ (* (- 2) x43) (+ (* 2 x45) (+ (* (- 2) x47) (* 1 x48) )))))))))))))))))))))))))) 
(<= 39 (+ (* 2 x1) (+ (* 1 x5) (+ (* 2 x6) (+ (* (- 2) x7) (+ (* (- 2) x8) (+ (* (- 2) x11) (+ (* 2 x12) (+ (* (- 1) x13) (+ (* (- 1) x14) (+ (* (- 1) x16) (+ (* (- 1) x17) (+ (* (- 2) x18) (+ (* (- 2) x19) (+ (* (- 1) x22) (+ (* (- 2) x27) (+ (* 2 x30) (+ (* (- 2) x31) (+ (* 1 x32) (+ (* 1 x33) (+ (* 1 x36) (+ (* (- 2) x39) (+ (* (- 1) x41) (+ (* (- 1) x42) (+ (* 2 x45) (+ (* (- 2) x46) (+ (* (- 2) x47) (+ (* 1 x48) (* 1 x49) )))))))))))))))))))))))))))) 
(<= (- 18) (+ (* (- 1) x0) (+ (* 1 x3) (+ (* 2 x4) (+ (* 2 x5) (+ (* 1 x8) (+ (* (- 2) x9) (+ (* (- 2) x12) (+ (* 2 x13) (+ (* 1 x16) (+ (* 1 x17) (+ (* 2 x19) (+ (* 2 x21) (+ (* (- 1) x24) (+ (* 2 x26) (+ (* 1 x27) (+ (* 1 x30) (+ (* (- 2) x31) (+ (* 1 x32) (+ (* 2 x34) (+ (* 2 x35) (+ (* (- 1) x36) (+ (* (- 1) x37) (+ (* 2 x42) (+ (* 2 x44) (+ (* (- 2) x45) (+ (* (- 2) x47) (* 1 x48) ))))))))))))))))))))))))))) 
(<= (- 2) (+ (* (- 2) x2) (+ (* (- 1) x3) (+ (* (- 2) x4) (+ (* 1 x5) (+ (* (- 1) x6) (+ (* (- 2) x8) (+ (* 1 x9) (+ (* (- 1) x10) (+ (* 2 x12) (+ (* 2 x13) (+ (* (- 2) x16) (+ (* (- 2) x17) (+ (* 2 x18) (+ (* (- 1) x20) (+ (* 1 x21) (+ (* (- 2) x22) (+ (* 2 x23) (+ (* 2 x25) (+ (* 1 x26) (+ (* 2 x30) (+ (* (- 2) x32) (+ (* (- 2) x35) (+ (* 2 x36) (+ (* 2 x37) (+ (* (- 1) x39) (+ (* (- 1) x41) (+ (* (- 1) x43) (+ (* 2 x46) (+ (* (- 1) x47) (* (- 1) x49) )))))))))))))))))))))))))))))) 
(<= 8 (+ (* 2 x1) (+ (* (- 1) x2) (+ (* (- 2) x3) (+ (* (- 1) x6) (+ (* 1 x8) (+ (* 2 x9) (+ (* 1 x10) (+ (* 1 x11) (+ (* 2 x12) (+ (* (- 2) x13) (+ (* 2 x15) (+ (* (- 1) x18) (+ (* 1 x19) (+ (* 1 x24) (+ (* (- 2) x25) (+ (* (- 2) x27) (+ (* (- 2) x28) (+ (* 1 x31) (+ (* (- 2) x33) (+ (* (- 1) x34) (+ (* (- 1) x40) (+ (* (- 2) x41) (+ (* (- 2) x42) (+ (* 2 x43) (+ (* 1 x44) (+ (* 2 x45) (* (- 1) x47) ))))))))))))))))))))))))))) 
(<= 40 (+ (* 2 x1) (+ (* 2 x2) (+ (* (- 1) x3) (+ (* (- 1) x5) (+ (* 2 x7) (+ (* 2 x9) (+ (* 2 x10) (+ (* (- 2) x11) (+ (* (- 2) x12) (+ (* (- 2) x13) (+ (* (- 1) x15) (+ (* (- 2) x16) (+ (* 1 x20) (+ (* (- 1) x22) (+ (* 2 x27) (+ (* (- 1) x28) (+ (* (- 1) x30) (+ (* 2 x31) (+ (* 1 x32) (+ (* 1 x35) (+ (* 2 x36) (+ (* (- 2) x37) (+ (* (- 1) x40) (+ (* (- 1) x41) (+ (* (- 1) x42) (+ (* 2 x43) (+ (* (- 1) x45) (+ (* (- 1) x46) (* 1 x48) ))))))))))))))))))))))))))))) 
(<= 16 (+ (* (- 2) x1) (+ (* 2 x2) (+ (* (- 1) x3) (+ (* 2 x4) (+ (* 1 x5) (+ (* 2 x6) (+ (* 2 x7) (+ (* (- 2) x11) (+ (* 1 x15) (+ (* 2 x16) (+ (* 2 x18) (+ (* (- 2) x19) (+ (* (- 2) x20) (+ (* 2 x21) (+ (* 2 x22) (+ (* (- 2) x23) (+ (* 1 x24) (+ (* 2 x25) (+ (* (- 2) x26) (+ (* 1 x27) (+ (* (- 2) x29) (+ (* 2 x30) (+ (* (- 2) x33) (+ (* (- 2) x34) (+ (* 2 x35) (+ (* 2 x37) (+ (* (- 2) x38) (+ (* (- 2) x39) (+ (* (- 2) x41) (+ (* 1 x43) (+ (* 2 x46) (+ (* (- 1) x47) (* (- 2) x48) ))))))))))))))))))))))))))))))))) 
(<= 15 (+ (* (- 15) x0) (+ (* (- 3) x1) (+ (* (- 18) x2) (+ (* 21 x3) (+ (* (- 46) x4) (+ (* (- 15) x5) (+ (* (- 14) x6) (+ (* (- 35) x7) (+ (* 24 x8) (+ (* (- 6) x9) (+ (* (- 3) x10) (+ (* (- 23) x11) (+ (* (- 18) x13) (+ (* 14 x14) (+ (* (- 20) x15) (+ (* 3 x16) (+ (* 17 x17) (+ (* 7 x18) (+ (* (- 31) x19) (+ (* 26 x20) (+ (* (- 38) x21) (+ (* (- 7) x22) (+ (* 8 x23) (+ (* (- 13) x24) (+ (* (- 1) x25) (+ (* 15 x26) (+ (* (- 10) x27) (+ (* (- 4) x28) (+ (* (- 1) x29) (+ (* 20 x30) (+ (* 22 x31) (+ (* 1 x32) (+ (* 4 x33) (+ (* 17 x34) (+ (* 4 x35) (+ (* (- 2) x36) (+ (* 4 x37) (+ (* 6 x38) (+ (* 26 x39) (+ (* (- 5) x40) (+ (* 5 x41) (+ (* 19 x42) (+ (* 18 x43) (+ (* (- 8) x44) (+ (* (- 7) x45) (+ (* (- 30) x46) (+ (* 18 x47) (+ (* (- 2) x48) (* 35 x49) ))))))))))))))))))))))))))))))))))))))))))))))))) 
(<= 69 (+ (* (- 7) x0) (+ (* 17 x1) (+ (* 18 x2) (+ (* (- 26) x3) (+ (* (- 4) x4) (+ (* (- 2) x5) (+ (* (- 2) x6) (+ (* 13 x7) (+ (* (- 21) x8) (+ (* (- 2) x9) (+ (* 39 x10) (+ (* (- 6) x11) (+ (* (- 31) x12) (+ (* (- 8) x13) (+ (* 3 x14) (+ (* (- 2) x15) (+ (* (- 39) x16) (+ (* (- 13) x17) (+ (* 8 x18) (+ (* 14 x19) (+ (* (- 40) x20) (+ (* 1 x21) (+ (* 12 x22) (+ (* (- 7) x23) (+ (* (- 26) x24) (+ (* 32 x25) (+ (* 3 x26) (+ (* 20 x27) (+ (* (- 9) x28) (+ (* 4 x29) (+ (* (- 10) x30) (+ (* (- 1) x31) (+ (* (- 22) x32) (+ (* (- 38) x33) (+ (* (- 16) x34) (+ (* (- 2) x35) (+ (* 22 x36) (+ (* (- 18) x37) (+ (* (- 6) x39) (+ (* (- 10) x40) (+ (* 12 x41) (+ (* 2 x42) (+ (* (- 2) x43) (+ (* (- 6) x44) (+ (* (- 10) x45) (+ (* 19 x46) (+ (* 19 x47) (+ (* 14 x48) (* (- 27) x49) ))))))))))))))))))))))))))))))))))))))))))))))))) 
(<= (- 649) (+ (* 53 x0) (+ (* (- 35) x1) (+ (* (- 64) x2) (+ (* 77 x3) (+ (* 49 x4) (+ (* 11 x5) (+ (* 1 x6) (+ (* (- 23) x7) (+ (* 72 x8) (+ (* 15 x9) (+ (* (- 142) x10) (+ (* 44 x11) (+ (* 100 x12) (+ (* 41 x13) (+ (* 4 x14) (+ (* 18 x15) (+ (* 166 x16) (+ (* 27 x17) (+ (* (- 55) x18) (+ (* (- 42) x19) (+ (* 138 x20) (+ (* 9 x21) (+ (* (- 27) x22) (+ (* 18 x23) (+ (* 113 x24) (+ (* (- 102) x25) (+ (* (- 4) x26) (+ (* (- 46) x27) (+ (* 18 x28) (+ (* (- 29) x29) (+ (* 50 x30) (+ (* (- 10) x31) (+ (* 67 x32) (+ (* 122 x33) (+ (* 45 x34) (+ (* 18 x35) (+ (* (- 64) x36) (+ (* 91 x37) (+ (* (- 10) x38) (+ (* 24 x39) (+ (* 42 x40) (+ (* (- 60) x41) (+ (* 8 x42) (+ (* (- 19) x43) (+ (* 31 x44) (+ (* 27 x45) (+ (* (- 69) x46) (+ (* (- 72) x47) (+ (* (- 39) x48) (* 76 x49) )))))))))))))))))))))))))))))))))))))))))))))))))) 
(<= (- 340) (+ (* 38 x0) (+ (* (- 37) x1) (+ (* (- 9) x2) (+ (* 31 x3) (+ (* 122 x4) (+ (* 42 x5) (+ (* 44 x6) (+ (* 56 x7) (+ (* 53 x8) (+ (* 6 x9) (+ (* (- 114) x10) (+ (* 50 x11) (+ (* 68 x12) (+ (* 73 x13) (+ (* (- 43) x14) (+ (* 48 x15) (+ (* 148 x16) (+ (* 13 x17) (+ (* (- 42) x18) (+ (* 9 x19) (+ (* 101 x20) (+ (* 109 x21) (+ (* (- 22) x22) (+ (* (- 32) x23) (+ (* 95 x24) (+ (* (- 99) x25) (+ (* (- 54) x26) (+ (* (- 29) x27) (+ (* 42 x28) (+ (* (- 26) x29) (+ (* (- 19) x30) (+ (* (- 31) x31) (+ (* 81 x32) (+ (* 128 x33) (+ (* 44 x34) (+ (* 22 x35) (+ (* (- 101) x36) (+ (* 64 x37) (+ (* (- 3) x38) (+ (* (- 30) x39) (+ (* 54 x40) (+ (* (- 63) x41) (+ (* (- 59) x42) (+ (* (- 31) x43) (+ (* 60 x44) (+ (* 26 x45) (+ (* (- 105) x47) (+ (* (- 61) x48) (* 33 x49) ))))))))))))))))))))))))))))))))))))))))))))))))) 
(<= 974 (+ (* (- 37) x0) (+ (* 55 x1) (+ (* 67 x2) (+ (* (- 65) x3) (+ (* (- 80) x4) (+ (* (- 33) x5) (+ (* (- 23) x6) (+ (* 11 x7) (+ (* (- 51) x8) (+ (* (- 8) x9) (+ (* 146 x10) (+ (* (- 79) x11) (+ (* (- 122) x12) (+ (* (- 60) x13) (+ (* 13 x14) (+ (* (- 51) x15) (+ (* (- 171) x16) (+ (* (- 26) x17) (+ (* 66 x18) (+ (* 5 x19) (+ (* (- 136) x20) (+ (* (- 17) x21) (+ (* 13 x22) (+ (* (- 25) x23) (+ (* (- 140) x24) (+ (* 123 x25) (+ (* 12 x26) (+ (* 45 x27) (+ (* (- 19) x28) (+ (* 11 x29) (+ (* (- 46) x30) (+ (* 11 x31) (+ (* (- 57) x32) (+ (* (- 127) x33) (+ (* (- 29) x34) (+ (* 5 x35) (+ (* 84 x36) (+ (* (- 56) x37) (+ (* 9 x38) (+ (* 4 x39) (+ (* (- 50) x40) (+ (* 53 x41) (+ (* (- 13) x42) (+ (* 33 x43) (+ (* (- 17) x44) (+ (* (- 32) x45) (+ (* 45 x46) (+ (* 89 x47) (+ (* 24 x48) (* (- 52) x49) )))))))))))))))))))))))))))))))))))))))))))))))))) 
(<= (- 813) (+ (* (- 27) x0) (+ (* 7 x1) (+ (* (- 48) x2) (+ (* (- 18) x3) (+ (* (- 60) x4) (+ (* (- 10) x5) (+ (* (- 26) x6) (+ (* (- 70) x7) (+ (* (- 72) x8) (+ (* 3 x9) (+ (* 69 x10) (+ (* 62 x11) (+ (* 10 x12) (+ (* (- 46) x13) (+ (* 45 x14) (+ (* 4 x15) (+ (* (- 69) x16) (+ (* 8 x17) (+ (* (- 17) x18) (+ (* 60 x19) (+ (* (- 75) x20) (+ (* (- 138) x21) (+ (* 55 x22) (+ (* 74 x23) (+ (* 7 x24) (+ (* 44 x25) (+ (* 59 x26) (+ (* 18 x27) (+ (* (- 56) x28) (+ (* 47 x29) (+ (* 49 x30) (+ (* 36 x31) (+ (* (- 105) x32) (+ (* (- 114) x33) (+ (* (- 83) x34) (+ (* (- 64) x35) (+ (* 72 x36) (+ (* (- 104) x37) (+ (* 2 x38) (+ (* (- 17) x40) (+ (* 61 x41) (+ (* 104 x42) (+ (* (- 13) x43) (+ (* (- 93) x44) (+ (* (- 4) x45) (+ (* (- 11) x46) (+ (* 87 x47) (+ (* 116 x48) (* (- 54) x49) )))))))))))))))))))))))))))))))))))))))))))))))))))
(check-sat)
(exit)